NAME : mEgtspf.pid7458.gtsp.214748508.tour
COMMENT : Length = 214748508
COMMENT : Found by LKH [Keld Helsgaun] Tue Mar 25 10:35:58 2025
TYPE : TOUR
DIMENSION : 130
TOUR_SECTION
1
78
75
76
77
7
86
83
84
85
42
39
40
41
23
24
25
26
44
45
46
43
60
61
62
59
27
28
29
30
118
115
116
117
121
122
119
120
47
48
49
50
80
81
82
79
127
128
129
130
52
53
54
51
100
101
102
99
4
6
13
14
11
12
88
89
90
87
65
66
63
64
109
110
107
108
96
97
98
95
5
37
38
35
36
126
123
124
125
111
112
113
114
10
2
74
71
72
73
33
34
31
32
9
3
8
92
93
94
91
104
105
106
103
20
21
22
19
15
16
17
18
70
67
68
69
58
55
56
57
-1
EOF
